 $CONTRL SCFTYP=RHF RUNTYP=ENERGY EXETYP=RUN UNITS=ANGSTROM ISPHER=1 $END
 $SYSTEM MWORDS=100 $END
 $SCF nconv=1.0d-6 diis=.true. $END
 $BASIS GBASIS=N21 NGAUSS=3 $END
 $DATA

 c1
C   6.0      -1.21049        0.70500        0.03784
C   6.0      -2.41828        1.41583       -0.06440
C   6.0      -3.63857        0.73534       -0.03862
C   6.0      -3.66349       -0.65522        0.08976
C   6.0      -2.46802       -1.37257        0.18934
C   6.0      -1.23524       -0.69868        0.16235
C   6.0      -0.03285       -1.40754        0.25776
C   6.0       1.21439       -0.73901        0.23838
C   6.0       1.24024        0.67552        0.11966
C   6.0       0.01557        1.37820        0.01760
C   6.0       2.42981       -1.45744        0.33453
C   6.0       3.66898       -0.77385        0.32793
C   6.0       3.69783        0.63948        0.20492
C   6.0       2.48235        1.35984        0.09637
C   6.0       4.88894       -1.48158        0.43120
C   6.0       6.11647       -0.81756        0.41189
C   6.0       6.14927        0.58500        0.28240
C   6.0       4.94948        1.30113        0.18242
C   6.0       7.31730       -1.53866        0.51769
C   6.0       8.54223       -0.86857        0.49037
C   6.0       8.57756        0.52137        0.35646
C   6.0       7.38745        1.24847        0.25341
C   6.0       2.41748       -2.90496        0.39280
C   6.0      2.43414       -4.10629        0.44328
Si  14.0       2.43796       -5.91704        0.51570
C   6.0       3.89829       -6.48090        1.61418
C   6.0       3.94993       -7.99635        1.82754
C   6.0       5.24840       -5.97559        1.10517
C   6.0       0.67086       -6.34321        1.08738
C   6.0       0.29065       -7.81980        0.96352
C   6.0       0.48087       -5.86915        2.53175
C   6.0       2.58489       -6.35422       -1.35006
C   6.0       3.63232       -5.49031       -2.07618
C   6.0       2.88651       -7.82974       -1.62449
C   6.0       2.50179        2.80644       -0.01649
C   6.0       2.49205        4.00715       -0.11715
C   6.0       2.44278        5.44116       -0.19916
C   6.0       1.31687        6.12122        0.27985
C   6.0       1.25520        7.51524        0.20682
C   6.0       2.31923        8.24134       -0.35172
C   6.0       3.44124        7.55443       -0.84184
C   6.0       3.50221        6.15860       -0.76812
C   6.0       2.26858        9.73832       -0.42794
H   1.0      -2.41911        2.49491       -0.16365
H   1.0      -4.56650        1.28711       -0.11734
H   1.0      -4.61099       -1.17807        0.11133
H   1.0      -2.50759       -2.45096        0.28769
H   1.0      -0.08231       -2.48581        0.35192
H   1.0       0.00099        2.45683       -0.07939
H   1.0       4.89887       -2.55846        0.52779
H   1.0       5.00428        2.37824        0.08280
H   1.0       7.30837       -2.61778        0.62065
H   1.0       9.46510       -1.42838        0.57173
H   1.0       9.52932        1.03586        0.33307
H   1.0       7.43547        2.32577        0.15042
H   1.0       3.72074       -6.01312        2.60663
H   1.0       4.11777       -8.54087        0.88039
H   1.0       3.01597       -8.35602        2.29558
H   1.0       4.77977       -8.25340        2.52002
H   1.0       5.51724       -6.45822        0.14665
H   1.0       6.04485       -6.22235        1.83975
H   1.0       5.23067       -4.87380        0.98305
H   1.0      -0.02685       -5.77004        0.43891
H   1.0       0.94711       -8.47085        1.56896
H   1.0       0.31345       -8.13758       -0.09404
H   1.0      -0.75371       -7.96751        1.31254
H   1.0       1.16272       -6.41679        3.21730
H   1.0      -0.56650       -6.04224        2.85903
H   1.0       0.68536       -4.78045        2.61584
H   1.0       1.59889       -6.09931       -1.79489
H   1.0       4.65556       -5.67736       -1.70392
H   1.0       3.41050       -4.40920       -1.96900
H   1.0       3.62254       -5.71385       -3.16406
H   1.0       3.90243       -8.09203       -1.27098
H   1.0       2.85448       -8.01864       -2.71921
H   1.0       2.15505       -8.50400       -1.14969
H   1.0       0.48886        5.57330        0.71409
H   1.0       0.37895        8.02485        0.58769
H   1.0       4.26827        8.10073       -1.27863
H   1.0       4.37454        5.64119       -1.14940
H   1.0       1.32379       10.13678       -0.00025
H   1.0       2.33923       10.06231       -1.48731
H   1.0       3.11884       10.16822        0.14237
  $END
